min: 1.0Emax;
1.0Emax >= 1.0E_0;
1.0Emax >= 1.0E_7;
1.0Emax >= 1.0E_8;
1.0Emax >= 1.0E_9;
1.0Emax >= 1.0E_10;
1.0Emax >= 1.0E_11;
1.0Emax >= 1.0E_12;
1.0Emax >= 1.0E_13;
1.0E_0 >= 10.0;
1.0E_7 >= 10.0;
1.0E_8 >= 10.0;
1.0E_9 >= 120.0X_9_kettle + 400.0X_9_hobsub1 + 400.0X_9_hobsub2 + 500.0X_9_ovensub1 + 500.0X_9_ovensub2;
1.0E_10 >= 7.0;
1.0E_11 >= 300.0;
1.0E_12 >= 5.0;
1.0E_13 >= 7.0;
1.0E_9 >= 1.0E_8 + 120.0X_9_kettle + 400.0X_9_hobsub1 + 400.0X_9_hobsub2 + 500.0X_9_ovensub1 + 500.0X_9_ovensub2;
1.0E_10 >= 1.0E_7 + 7.0;
1.0E_10 >= 1.0E_9 + 7.0;
1.0E_11 >= 1.0E_10 + 300.0;
1.0E_12 >= 1.0E_11 + 5.0;
1.0E_13 >= 1.0E_0 + 7.0;
1.0E_13 >= 1.0E_12 + 7.0;
1.0X_9_kettle + 1.0X_9_hobsub1 + 1.0X_9_hobsub2 + 1.0X_9_ovensub1 + 1.0X_9_ovensub2 = 1.0;
1.0E_0 >= 10.0 + 1.0E_7 - 1349.0 + 1349.0 - 1349.0Y_0_7;
1.0E_0 >= 10.0 + 1.0E_8 - 1349.0 + 1349.0 - 1349.0Y_0_8;
1.0E_0 >= 10.0 + 1.0E_10 - 1349.0 + 1349.0 - 1349.0Y_0_10;
1.0E_0 >= 10.0 + 1.0E_12 - 1349.0 + 1349.0 - 1349.0Y_0_12;
1.0E_0 >= 10.0 + 1.0E_13 - 1349.0 + 1349.0 - 1349.0Y_0_13;
1.0E_7 >= 10.0 + 1.0E_0 - 1349.0 + 1349.0 - 1349.0Y_7_0;
1.0E_7 >= 10.0 + 1.0E_8 - 1349.0 + 1349.0 - 1349.0Y_7_8;
1.0E_7 >= 10.0 + 1.0E_10 - 1349.0 + 1349.0 - 1349.0Y_7_10;
1.0E_7 >= 10.0 + 1.0E_12 - 1349.0 + 1349.0 - 1349.0Y_7_12;
1.0E_7 >= 10.0 + 1.0E_13 - 1349.0 + 1349.0 - 1349.0Y_7_13;
1.0E_8 >= 10.0 + 1.0E_0 - 1349.0 + 1349.0 - 1349.0Y_8_0;
1.0E_8 >= 10.0 + 1.0E_7 - 1349.0 + 1349.0 - 1349.0Y_8_7;
1.0E_8 >= 10.0 + 1.0E_10 - 1349.0 + 1349.0 - 1349.0Y_8_10;
1.0E_8 >= 10.0 + 1.0E_12 - 1349.0 + 1349.0 - 1349.0Y_8_12;
1.0E_8 >= 10.0 + 1.0E_13 - 1349.0 + 1349.0 - 1349.0Y_8_13;
1.0E_10 >= 7.0 + 1.0E_0 - 1349.0 + 1349.0 - 1349.0Y_10_0;
1.0E_10 >= 7.0 + 1.0E_7 - 1349.0 + 1349.0 - 1349.0Y_10_7;
1.0E_10 >= 7.0 + 1.0E_8 - 1349.0 + 1349.0 - 1349.0Y_10_8;
1.0E_10 >= 7.0 + 1.0E_12 - 1349.0 + 1349.0 - 1349.0Y_10_12;
1.0E_10 >= 7.0 + 1.0E_13 - 1349.0 + 1349.0 - 1349.0Y_10_13;
1.0E_12 >= 5.0 + 1.0E_0 - 1349.0 + 1349.0 - 1349.0Y_12_0;
1.0E_12 >= 5.0 + 1.0E_7 - 1349.0 + 1349.0 - 1349.0Y_12_7;
1.0E_12 >= 5.0 + 1.0E_8 - 1349.0 + 1349.0 - 1349.0Y_12_8;
1.0E_12 >= 5.0 + 1.0E_10 - 1349.0 + 1349.0 - 1349.0Y_12_10;
1.0E_12 >= 5.0 + 1.0E_13 - 1349.0 + 1349.0 - 1349.0Y_12_13;
1.0E_13 >= 7.0 + 1.0E_0 - 1349.0 + 1349.0 - 1349.0Y_13_0;
1.0E_13 >= 7.0 + 1.0E_7 - 1349.0 + 1349.0 - 1349.0Y_13_7;
1.0E_13 >= 7.0 + 1.0E_8 - 1349.0 + 1349.0 - 1349.0Y_13_8;
1.0E_13 >= 7.0 + 1.0E_10 - 1349.0 + 1349.0 - 1349.0Y_13_10;
1.0E_13 >= 7.0 + 1.0E_12 - 1349.0 + 1349.0 - 1349.0Y_13_12;
1.0E_7 >= 10.0 + 1.0E_0 - 1349.0 + 1349.0 - 1349.0 + 1349.0Y_0_7;
1.0E_8 >= 10.0 + 1.0E_0 - 1349.0 + 1349.0 - 1349.0 + 1349.0Y_0_8;
1.0E_10 >= 7.0 + 1.0E_0 - 1349.0 + 1349.0 - 1349.0 + 1349.0Y_0_10;
1.0E_12 >= 5.0 + 1.0E_0 - 1349.0 + 1349.0 - 1349.0 + 1349.0Y_0_12;
1.0E_13 >= 7.0 + 1.0E_0 - 1349.0 + 1349.0 - 1349.0 + 1349.0Y_0_13;
1.0E_0 >= 10.0 + 1.0E_7 - 1349.0 + 1349.0 - 1349.0 + 1349.0Y_7_0;
1.0E_8 >= 10.0 + 1.0E_7 - 1349.0 + 1349.0 - 1349.0 + 1349.0Y_7_8;
1.0E_10 >= 7.0 + 1.0E_7 - 1349.0 + 1349.0 - 1349.0 + 1349.0Y_7_10;
1.0E_12 >= 5.0 + 1.0E_7 - 1349.0 + 1349.0 - 1349.0 + 1349.0Y_7_12;
1.0E_13 >= 7.0 + 1.0E_7 - 1349.0 + 1349.0 - 1349.0 + 1349.0Y_7_13;
1.0E_0 >= 10.0 + 1.0E_8 - 1349.0 + 1349.0 - 1349.0 + 1349.0Y_8_0;
1.0E_7 >= 10.0 + 1.0E_8 - 1349.0 + 1349.0 - 1349.0 + 1349.0Y_8_7;
1.0E_10 >= 7.0 + 1.0E_8 - 1349.0 + 1349.0 - 1349.0 + 1349.0Y_8_10;
1.0E_12 >= 5.0 + 1.0E_8 - 1349.0 + 1349.0 - 1349.0 + 1349.0Y_8_12;
1.0E_13 >= 7.0 + 1.0E_8 - 1349.0 + 1349.0 - 1349.0 + 1349.0Y_8_13;
1.0E_0 >= 10.0 + 1.0E_10 - 1349.0 + 1349.0 - 1349.0 + 1349.0Y_10_0;
1.0E_7 >= 10.0 + 1.0E_10 - 1349.0 + 1349.0 - 1349.0 + 1349.0Y_10_7;
1.0E_8 >= 10.0 + 1.0E_10 - 1349.0 + 1349.0 - 1349.0 + 1349.0Y_10_8;
1.0E_12 >= 5.0 + 1.0E_10 - 1349.0 + 1349.0 - 1349.0 + 1349.0Y_10_12;
1.0E_13 >= 7.0 + 1.0E_10 - 1349.0 + 1349.0 - 1349.0 + 1349.0Y_10_13;
1.0E_0 >= 10.0 + 1.0E_12 - 1349.0 + 1349.0 - 1349.0 + 1349.0Y_12_0;
1.0E_7 >= 10.0 + 1.0E_12 - 1349.0 + 1349.0 - 1349.0 + 1349.0Y_12_7;
1.0E_8 >= 10.0 + 1.0E_12 - 1349.0 + 1349.0 - 1349.0 + 1349.0Y_12_8;
1.0E_10 >= 7.0 + 1.0E_12 - 1349.0 + 1349.0 - 1349.0 + 1349.0Y_12_10;
1.0E_13 >= 7.0 + 1.0E_12 - 1349.0 + 1349.0 - 1349.0 + 1349.0Y_12_13;
1.0E_0 >= 10.0 + 1.0E_13 - 1349.0 + 1349.0 - 1349.0 + 1349.0Y_13_0;
1.0E_7 >= 10.0 + 1.0E_13 - 1349.0 + 1349.0 - 1349.0 + 1349.0Y_13_7;
1.0E_8 >= 10.0 + 1.0E_13 - 1349.0 + 1349.0 - 1349.0 + 1349.0Y_13_8;
1.0E_10 >= 7.0 + 1.0E_13 - 1349.0 + 1349.0 - 1349.0 + 1349.0Y_13_10;
1.0E_12 >= 5.0 + 1.0E_13 - 1349.0 + 1349.0 - 1349.0 + 1349.0Y_13_12;
bin X_9_kettle,X_9_hobsub1,X_9_hobsub2,X_9_ovensub1,X_9_ovensub2;
bin Y_0_7,Y_0_8,Y_0_10,Y_0_12,Y_0_13,Y_7_0,Y_7_8,Y_7_10,Y_7_12,Y_7_13,Y_8_0,Y_8_7,Y_8_10,Y_8_12,Y_8_13,Y_10_0,Y_10_7,Y_10_8,Y_10_12,Y_10_13,Y_12_0,Y_12_7,Y_12_8,Y_12_10,Y_12_13,Y_13_0,Y_13_7,Y_13_8,Y_13_10,Y_13_12;